p cnf 24 32
-1 -2 21 0 
-3 -2 22 0 
-4 -5 20 -6 19 23 0 
-6 19 23 0 
-7 17 23 0 
-4 24 0 
-8 -9 -10 23 0 
-5 20 -9 -4 24 0 
-11 -4 24 0 
-5 20 -4 24 0 
-5 20 24 0 
-5 20 -9 -12 24 0 
-5 20 -4 -13 -11 -12 24 0 
-14 -12 24 0 
-11 -15 -4 24 0 
-15 -4 -9 -12 24 0 
-4 -9 -11 -15 -6 19 24 0 
-8 -11 -5 20 -4 24 0 
-5 20 -11 -4 24 0 
-5 20 -4 -12 24 0 
-5 20 -16 -9 -4 24 0 
-17 7 -4 24 0 
-5 20 -15 -16 -4 24 0 
-18 -11 -5 20 24 0 
-6 19 -9 -4 24 0 
-5 20 -9 24 0 
-10 -19 6 23 0 
-20 5 23 0 
-13 -15 -12 24 0 
-13 -9 -17 7 24 0 
-10 23 0 
-5 20 -9 -18 -4 24 0 
